AppName hexgl
AppDomainName cloudxabide.com
AvailabilityZones    us-east-1a,us-east-1b,us-east-1c    
BastionInstanceType    t2.nano    
EC2KeyName    cxa-2019-q1    
NumberOfAZs    3    
PHPVersion    7.0    
PublicAlbAcmCertificate        
PublicSubnet0Cidr    10.0.200.0/24    
PublicSubnet1Cidr    10.0.201.0/24    
PublicSubnet2Cidr    10.0.202.0/24    
PublicSubnet3Cidr    10.0.203.0/24    
PublicSubnet4Cidr    10.0.204.0/24    
PublicSubnet5Cidr    10.0.205.0/24    
SshAccessCidr    0.0.0.0/0    
UseRoute53Boolean    false    
VpcCidr    10.0.0.0/16    
VpcTenancy    default    
WebAsgMax    3    
WebAsgMin    1    
WebInstanceType    t2.medium    
WebSubnet0Cidr    10.0.0.0/22    
WebSubnet1Cidr    10.0.4.0/22    
WebSubnet2Cidr    10.0.8.0/22    
WebSubnet3Cidr    10.0.12.0/22    
WebSubnet4Cidr    10.0.16.0/22    
WebSubnet5Cidr    10.0.20.0/22
